(set-info :status unknown)
(declare-fun mem0 () (_ BitVec 8))
(declare-fun C2 () (_ BitVec 46))
(declare-fun C1 () (_ BitVec 46))
(assert
 (let ((?x3319 (ite (= ((_ extract 44 44) C1) (_ bv1 1)) (_ bv44 32) (ite (= ((_ extract 45 45) C1) (_ bv1 1)) (_ bv45 32) (_ bv46 32)))))
(let ((?x1174 (ite (= ((_ extract 42 42) C1) (_ bv1 1)) (_ bv42 32) (ite (= ((_ extract 43 43) C1) (_ bv1 1)) (_ bv43 32) ?x3319))))
(let ((?x3279 (ite (= ((_ extract 40 40) C1) (_ bv1 1)) (_ bv40 32) (ite (= ((_ extract 41 41) C1) (_ bv1 1)) (_ bv41 32) ?x1174))))
(let ((?x3368 (ite (= ((_ extract 38 38) C1) (_ bv1 1)) (_ bv38 32) (ite (= ((_ extract 39 39) C1) (_ bv1 1)) (_ bv39 32) ?x3279))))
(let ((?x1464 (ite (= ((_ extract 36 36) C1) (_ bv1 1)) (_ bv36 32) (ite (= ((_ extract 37 37) C1) (_ bv1 1)) (_ bv37 32) ?x3368))))
(let ((?x3377 (ite (= ((_ extract 34 34) C1) (_ bv1 1)) (_ bv34 32) (ite (= ((_ extract 35 35) C1) (_ bv1 1)) (_ bv35 32) ?x1464))))
(let ((?x2432 (ite (= ((_ extract 32 32) C1) (_ bv1 1)) (_ bv32 32) (ite (= ((_ extract 33 33) C1) (_ bv1 1)) (_ bv33 32) ?x3377))))
(let ((?x2266 (ite (= ((_ extract 30 30) C1) (_ bv1 1)) (_ bv30 32) (ite (= ((_ extract 31 31) C1) (_ bv1 1)) (_ bv31 32) ?x2432))))
(let ((?x3354 (ite (= ((_ extract 28 28) C1) (_ bv1 1)) (_ bv28 32) (ite (= ((_ extract 29 29) C1) (_ bv1 1)) (_ bv29 32) ?x2266))))
(let ((?x2178 (ite (= ((_ extract 26 26) C1) (_ bv1 1)) (_ bv26 32) (ite (= ((_ extract 27 27) C1) (_ bv1 1)) (_ bv27 32) ?x3354))))
(let ((?x3361 (ite (= ((_ extract 24 24) C1) (_ bv1 1)) (_ bv24 32) (ite (= ((_ extract 25 25) C1) (_ bv1 1)) (_ bv25 32) ?x2178))))
(let ((?x3475 (ite (= ((_ extract 22 22) C1) (_ bv1 1)) (_ bv22 32) (ite (= ((_ extract 23 23) C1) (_ bv1 1)) (_ bv23 32) ?x3361))))
(let ((?x1538 (ite (= ((_ extract 20 20) C1) (_ bv1 1)) (_ bv20 32) (ite (= ((_ extract 21 21) C1) (_ bv1 1)) (_ bv21 32) ?x3475))))
(let ((?x3956 (ite (= ((_ extract 18 18) C1) (_ bv1 1)) (_ bv18 32) (ite (= ((_ extract 19 19) C1) (_ bv1 1)) (_ bv19 32) ?x1538))))
(let ((?x3435 (ite (= ((_ extract 16 16) C1) (_ bv1 1)) (_ bv16 32) (ite (= ((_ extract 17 17) C1) (_ bv1 1)) (_ bv17 32) ?x3956))))
(let ((?x1458 (ite (= ((_ extract 14 14) C1) (_ bv1 1)) (_ bv14 32) (ite (= ((_ extract 15 15) C1) (_ bv1 1)) (_ bv15 32) ?x3435))))
(let ((?x3416 (ite (= ((_ extract 12 12) C1) (_ bv1 1)) (_ bv12 32) (ite (= ((_ extract 13 13) C1) (_ bv1 1)) (_ bv13 32) ?x1458))))
(let ((?x4306 (ite (= ((_ extract 10 10) C1) (_ bv1 1)) (_ bv10 32) (ite (= ((_ extract 11 11) C1) (_ bv1 1)) (_ bv11 32) ?x3416))))
(let ((?x3463 (ite (= ((_ extract 8 8) C1) (_ bv1 1)) (_ bv8 32) (ite (= ((_ extract 9 9) C1) (_ bv1 1)) (_ bv9 32) ?x4306))))
(let ((?x2348 (ite (= ((_ extract 6 6) C1) (_ bv1 1)) (_ bv6 32) (ite (= ((_ extract 7 7) C1) (_ bv1 1)) (_ bv7 32) ?x3463))))
(let ((?x1556 (ite (= ((_ extract 4 4) C1) (_ bv1 1)) (_ bv4 32) (ite (= ((_ extract 5 5) C1) (_ bv1 1)) (_ bv5 32) ?x2348))))
(let ((?x2103 (ite (= ((_ extract 2 2) C1) (_ bv1 1)) (_ bv2 32) (ite (= ((_ extract 3 3) C1) (_ bv1 1)) (_ bv3 32) ?x1556))))
(let ((?x3589 (ite (= ((_ extract 0 0) C1) (_ bv1 1)) (_ bv0 32) (ite (= ((_ extract 1 1) C1) (_ bv1 1)) (_ bv1 32) ?x2103))))
(and (= ?x3589 (_ bv0 32)) (= C1 (bvadd C2 (_ bv1 46))) (and (distinct mem0 mem0) true))))))))))))))))))))))))))
(check-sat)
